data/instances/vrp_files/train_34.vrp
NAME : 34
COMMENT : Generated instance No. 34
TYPE : CVRP
DIMENSION : 21
EDGE_WEIGHT_TYPE : EUC_2D
CAPACITY : 30
NODE_COORD_SECTION
 1 65 487
 2 334 26
 3 24 831
 4 273 518
 5 298 940
 6 259 429
 7 872 841
 8 186 802
 9 458 482
 10 133 80
 11 727 496
 12 436 729
 13 765 158
 14 610 135
 15 751 656
 16 956 68
 17 57 282
 18 261 246
 19 906 249
 20 271 759
 21 449 776
DEMAND_SECTION
1 0
2 8
3 4
4 2
5 10
6 9
7 5
8 4
9 2
10 1
11 7
12 6
13 2
14 8
15 4
16 8
17 7
18 5
19 10
20 10
21 8
DEPOT_SECTION
 1
 -1
EOF